p tw 560 8401 7 
1 8 
1 121 
2 9 
2 10 
2 122 
3 7 
3 10 
3 181 
4 8 
4 9 
4 182 
5 7 
5 9 
5 231 
6 8 
6 10 
6 232 
11 17 
11 18 
11 61 
12 19 
12 20 
12 62 
13 17 
13 20 
13 271 
14 18 
14 19 
14 272 
15 17 
15 19 
15 451 
16 18 
16 20 
16 452 
21 27 
21 28 
21 371 
22 29 
22 30 
22 372 
23 27 
23 30 
23 441 
24 28 
24 29 
24 442 
25 27 
25 29 
25 471 
26 28 
26 30 
26 472 
31 37 
31 38 
31 41 
32 39 
32 40 
32 42 
33 37 
33 40 
33 381 
34 38 
34 39 
34 382 
35 37 
35 39 
35 491 
36 38 
36 40 
36 492 
41 47 
41 48 
42 49 
42 50 
43 47 
43 50 
43 141 
44 48 
44 49 
44 142 
45 47 
45 49 
45 461 
46 48 
46 50 
46 462 
51 57 
51 58 
51 81 
52 59 
52 60 
52 82 
53 57 
53 60 
53 311 
54 58 
54 59 
54 312 
55 57 
55 59 
55 511 
56 58 
56 60 
56 512 
61 67 
61 68 
62 69 
62 70 
63 67 
63 70 
63 91 
64 68 
64 69 
64 92 
65 67 
65 69 
65 261 
66 68 
66 70 
66 262 
71 77 
71 78 
71 233 
72 79 
72 80 
72 234 
73 77 
73 80 
73 401 
74 78 
74 79 
74 402 
75 77 
75 79 
75 513 
76 78 
76 80 
76 514 
81 87 
81 88 
82 89 
82 90 
83 87 
83 90 
83 251 
84 88 
84 89 
84 252 
85 87 
85 89 
85 331 
86 88 
86 90 
86 332 
91 97 
91 98 
92 99 
92 100 
93 97 
93 100 
93 463 
94 98 
94 99 
94 464 
95 97 
95 99 
95 521 
96 98 
96 100 
96 522 
101 107 
101 108 
101 183 
102 109 
102 110 
102 184 
103 107 
103 110 
103 291 
104 108 
104 109 
104 292 
105 107 
105 109 
105 515 
106 108 
106 110 
106 516 
111 117 
111 118 
111 221 
112 119 
112 120 
112 222 
113 117 
113 120 
113 281 
114 118 
114 119 
114 282 
115 117 
115 119 
115 501 
116 118 
116 120 
116 502 
121 127 
121 128 
122 129 
122 130 
123 127 
123 130 
123 421 
124 128 
124 129 
124 422 
125 127 
125 129 
125 531 
126 128 
126 130 
126 532 
131 137 
131 138 
131 241 
132 139 
132 140 
132 242 
133 137 
133 140 
133 373 
134 138 
134 139 
134 374 
135 137 
135 139 
135 465 
136 138 
136 140 
136 466 
141 147 
141 148 
142 149 
142 150 
143 147 
143 150 
143 383 
144 148 
144 149 
144 384 
145 147 
145 149 
145 481 
146 148 
146 150 
146 482 
151 157 
151 158 
151 423 
152 159 
152 160 
152 424 
153 157 
153 160 
153 443 
154 158 
154 159 
154 444 
155 157 
155 159 
155 503 
156 158 
156 160 
156 504 
161 167 
161 168 
161 403 
162 169 
162 170 
162 404 
163 167 
163 170 
163 473 
164 168 
164 169 
164 474 
165 167 
165 169 
165 541 
166 168 
166 170 
166 542 
171 177 
171 178 
171 191 
172 179 
172 180 
172 192 
173 177 
173 180 
173 483 
174 178 
174 179 
174 484 
175 177 
175 179 
175 551 
176 178 
176 180 
176 552 
181 187 
181 188 
182 189 
182 190 
183 187 
183 190 
184 188 
184 189 
185 187 
185 189 
185 431 
186 188 
186 190 
186 432 
191 197 
191 198 
192 199 
192 200 
193 197 
193 200 
193 425 
194 198 
194 199 
194 426 
195 197 
195 199 
195 553 
196 198 
196 200 
196 554 
201 207 
201 208 
201 243 
202 209 
202 210 
202 244 
203 207 
203 210 
203 411 
204 208 
204 209 
204 412 
205 207 
205 209 
205 555 
206 208 
206 210 
206 556 
211 217 
211 218 
211 293 
212 219 
212 220 
212 294 
213 217 
213 220 
213 375 
214 218 
214 219 
214 376 
215 217 
215 219 
215 543 
216 218 
216 220 
216 544 
221 227 
221 228 
222 229 
222 230 
223 227 
223 230 
223 273 
224 228 
224 229 
224 274 
225 227 
225 229 
225 523 
226 228 
226 230 
226 524 
231 237 
231 238 
232 239 
232 240 
233 237 
233 240 
234 238 
234 239 
235 237 
235 239 
235 453 
236 238 
236 240 
236 454 
241 247 
241 248 
242 249 
242 250 
243 247 
243 250 
244 248 
244 249 
245 247 
245 249 
245 351 
246 248 
246 250 
246 352 
251 257 
251 258 
252 259 
252 260 
253 257 
253 260 
253 301 
254 258 
254 259 
254 302 
255 257 
255 259 
255 445 
256 258 
256 260 
256 446 
261 267 
261 268 
262 269 
262 270 
263 267 
263 270 
263 333 
264 268 
264 269 
264 334 
265 267 
265 269 
265 341 
266 268 
266 270 
266 342 
271 277 
271 278 
272 279 
272 280 
273 277 
273 280 
274 278 
274 279 
275 277 
275 279 
275 455 
276 278 
276 280 
276 456 
281 287 
281 288 
282 289 
282 290 
283 287 
283 290 
283 485 
284 288 
284 289 
284 486 
285 287 
285 289 
285 505 
286 288 
286 290 
286 506 
291 297 
291 298 
292 299 
292 300 
293 297 
293 300 
294 298 
294 299 
295 297 
295 299 
295 361 
296 298 
296 300 
296 362 
301 307 
301 308 
302 309 
302 310 
303 307 
303 310 
303 343 
304 308 
304 309 
304 344 
305 307 
305 309 
305 533 
306 308 
306 310 
306 534 
311 317 
311 318 
312 319 
312 320 
313 317 
313 320 
313 353 
314 318 
314 319 
314 354 
315 317 
315 319 
315 525 
316 318 
316 320 
316 526 
321 327 
321 328 
321 345 
322 329 
322 330 
322 346 
323 327 
323 330 
323 385 
324 328 
324 329 
324 386 
325 327 
325 329 
325 391 
326 328 
326 330 
326 392 
331 337 
331 338 
332 339 
332 340 
333 337 
333 340 
334 338 
334 339 
335 337 
335 339 
335 493 
336 338 
336 340 
336 494 
341 347 
341 348 
342 349 
342 350 
343 347 
343 350 
344 348 
344 349 
345 347 
345 349 
346 348 
346 350 
351 357 
351 358 
352 359 
352 360 
353 357 
353 360 
354 358 
354 359 
355 357 
355 359 
355 433 
356 358 
356 360 
356 434 
361 367 
361 368 
362 369 
362 370 
363 367 
363 370 
363 405 
364 368 
364 369 
364 406 
365 367 
365 369 
365 495 
366 368 
366 370 
366 496 
371 377 
371 378 
372 379 
372 380 
373 377 
373 380 
374 378 
374 379 
375 377 
375 379 
376 378 
376 380 
381 387 
381 388 
382 389 
382 390 
383 387 
383 390 
384 388 
384 389 
385 387 
385 389 
386 388 
386 390 
391 397 
391 398 
392 399 
392 400 
393 397 
393 400 
393 413 
394 398 
394 399 
394 414 
395 397 
395 399 
395 435 
396 398 
396 400 
396 436 
401 407 
401 408 
402 409 
402 410 
403 407 
403 410 
404 408 
404 409 
405 407 
405 409 
406 408 
406 410 
411 417 
411 418 
412 419 
412 420 
413 417 
413 420 
414 418 
414 419 
415 417 
415 419 
415 545 
416 418 
416 420 
416 546 
421 427 
421 428 
422 429 
422 430 
423 427 
423 430 
424 428 
424 429 
425 427 
425 429 
426 428 
426 430 
431 437 
431 438 
432 439 
432 440 
433 437 
433 440 
434 438 
434 439 
435 437 
435 439 
436 438 
436 440 
441 447 
441 448 
442 449 
442 450 
443 447 
443 450 
444 448 
444 449 
445 447 
445 449 
446 448 
446 450 
451 457 
451 458 
452 459 
452 460 
453 457 
453 460 
454 458 
454 459 
455 457 
455 459 
456 458 
456 460 
461 467 
461 468 
462 469 
462 470 
463 467 
463 470 
464 468 
464 469 
465 467 
465 469 
466 468 
466 470 
471 477 
471 478 
472 479 
472 480 
473 477 
473 480 
474 478 
474 479 
475 477 
475 479 
475 535 
476 478 
476 480 
476 536 
481 487 
481 488 
482 489 
482 490 
483 487 
483 490 
484 488 
484 489 
485 487 
485 489 
486 488 
486 490 
491 497 
491 498 
492 499 
492 500 
493 497 
493 500 
494 498 
494 499 
495 497 
495 499 
496 498 
496 500 
501 507 
501 508 
502 509 
502 510 
503 507 
503 510 
504 508 
504 509 
505 507 
505 509 
506 508 
506 510 
511 517 
511 518 
512 519 
512 520 
513 517 
513 520 
514 518 
514 519 
515 517 
515 519 
516 518 
516 520 
521 527 
521 528 
522 529 
522 530 
523 527 
523 530 
524 528 
524 529 
525 527 
525 529 
526 528 
526 530 
531 537 
531 538 
532 539 
532 540 
533 537 
533 540 
534 538 
534 539 
535 537 
535 539 
536 538 
536 540 
541 547 
541 548 
542 549 
542 550 
543 547 
543 550 
544 548 
544 549 
545 547 
545 549 
546 548 
546 550 
551 557 
551 558 
552 559 
552 560 
553 557 
553 560 
554 558 
554 559 
555 557 
555 559 
556 558 
556 560 
